54081
13, 5, 35, 24, 50, 20, 37, 7, 40, 51, 41, 32, 8, 38, 44, 19, 49, 48, 17, 23, 21, 29, 22, 10, 16, 15, 39, 46, 36, 1, 27, 33, 42, 45, 11, 31, 25, 52, 2, 14, 9, 12, 18, 4, 30, 47, 54, 34, 53, 26, 55, 28, 6, 3, 43
